; Copyright (c) 2026 The RIINA Authors. All rights reserved.
; Copyright (c) 2026 The RIINA Authors.
; Auto-generated from 02_FORMAL/coq/domains/mobile_os/ApplicationLifecycle.v (22 assertions)
; Generated by scripts/generate-full-stack.py
; Module: ApplicationLifecycle

(set-logic ALL)
(set-option :produce-models true)

; AppState (matches Coq: Inductive AppState)
(declare-datatypes ((AppState 0)) (((NotRunning) (Launching) (Foreground) (Background) (Suspended) (Terminated))))

; Application (matches Coq: Record Application)
(declare-datatypes ((Application 0))
  (((mk-application (app_id Int) (app_state AppState) (app_data AppData) (app_saved_state option) (app_supports_restoration Bool)))))

; URLScheme (matches Coq: Record URLScheme)
(declare-datatypes ((URLScheme 0))
  (((mk-url_scheme (url_scheme Int) (url_host Int) (url_path Int) (url_validated Bool) (url_sanitized Bool)))))

; AppExtension (matches Coq: Record AppExtension)
(declare-datatypes ((AppExtension 0))
  (((mk-app_extension (ext_id Int) (ext_parent_app_id Int) (ext_sandboxed Bool) (ext_data_types list)))))

; Widget (matches Coq: Record Widget)
(declare-datatypes ((Widget 0))
  (((mk-widget (widget_id Int) (widget_app_id Int) (widget_last_update Int) (widget_update_interval Int)))))

; AppGroup (matches Coq: Record AppGroup)
(declare-datatypes ((AppGroup 0))
  (((mk-app_group (group_app_ids list) (group_shared_data list) (group_access_controlled Bool)))))

; AppScene (matches Coq: Record AppScene)
(declare-datatypes ((AppScene 0))
  (((mk-app_scene (scene_app_id Int) (scene_state AppState) (scene_active Bool)))))

; ExtApp (matches Coq: Record ExtApp)
(declare-datatypes ((ExtApp 0))
  (((mk-ext_app (ext_app Application) (ext_bg_time_used Int) (ext_memory_level LowMemoryLevel) (ext_scenes list) (ext_activation_count Int)))))

; AppData (matches Coq: Definition AppData)
(define-fun AppData () Type true)

; in_state (matches Coq: Definition in_state)
(define-fun in_state ((app Application) (state AppState)) Prop
  true)

; terminated (matches Coq: Definition terminated)
(define-fun terminated ((app Application)) Prop
  true)

; relaunched (matches Coq: Definition relaunched)
(define-fun relaunched ((app Application)) Prop
  true)

; state (matches Coq: Definition state)
(define-fun state ((app Application)) AppData
  (app_data app))

; previous_state (matches Coq: Definition previous_state)
(define-fun previous_state ((app Application)) AppData
  true)

; state_invariants_hold (matches Coq: Definition state_invariants_hold)
(define-fun state_invariants_hold ((app Application) (s AppState)) Prop
  true)

; valid_lifecycle_transition (matches Coq: Definition valid_lifecycle_transition)
(define-fun valid_lifecycle_transition () Bool true)

; save_state (matches Coq: Definition save_state)
(define-fun save_state ((app Application)) Application
  true)

; restore_state (matches Coq: Definition restore_state)
(define-fun restore_state ((app Application)) Application
  true)

; well_formed_restorable (matches Coq: Definition well_formed_restorable)
(define-fun well_formed_restorable ((app Application)) Prop
  true)

; bg_time_limit (matches Coq: Definition bg_time_limit)
(define-fun bg_time_limit () Int 30000)

; LowMemoryLevel (matches Coq: Definition LowMemoryLevel)
(define-fun LowMemoryLevel () Type nat)

; well_formed_ext_app (matches Coq: Definition well_formed_ext_app)
(define-fun well_formed_ext_app ((ea ExtApp)) Prop
  true)

; transition_preserves_id (matches Coq: Definition transition_preserves_id)
(define-fun transition_preserves_id () Prop true)

; app_state_consistent (matches Coq: Theorem app_state_consistent)
(assert (= true true)) ; app_state_consistent [untranslatable]

; state_restoration_complete (matches Coq: Theorem state_restoration_complete)
(assert (= true true)) ; state_restoration_complete [untranslatable]

; save_restore_preserves_state (matches Coq: Theorem save_restore_preserves_state)
(assert (= true true)) ; save_restore_preserves_state [untranslatable]

; not_running_can_launch (matches Coq: Theorem not_running_can_launch)
(assert (= (valid_lifecycle_transition NotRunning Launching) true)) ; not_running_can_launch

; foreground_can_background (matches Coq: Theorem foreground_can_background)
(assert (= (valid_lifecycle_transition Foreground Background) true)) ; foreground_can_background

; background_can_foreground (matches Coq: Theorem background_can_foreground)
(assert (= (valid_lifecycle_transition Background Foreground) true)) ; background_can_foreground

; save_captures_current_state (matches Coq: Theorem save_captures_current_state)
(assert (= true true)) ; save_captures_current_state [untranslatable]

; app_state_transition_valid (matches Coq: Theorem app_state_transition_valid)
(assert (= true true)) ; app_state_transition_valid [untranslatable]

; background_to_foreground_clean (matches Coq: Theorem background_to_foreground_clean)
(assert (= true true)) ; background_to_foreground_clean [untranslatable]

; state_saved_on_background (matches Coq: Theorem state_saved_on_background)
(assert (= true true)) ; state_saved_on_background [untranslatable]

; state_restored_on_foreground (matches Coq: Theorem state_restored_on_foreground)
(assert (= true true)) ; state_restored_on_foreground [untranslatable]

; app_termination_notified (matches Coq: Theorem app_termination_notified)
(assert (= true true)) ; app_termination_notified [untranslatable]

; low_memory_warning_delivered (matches Coq: Theorem low_memory_warning_delivered)
(assert (= true true)) ; low_memory_warning_delivered [untranslatable]

; background_execution_time_limited (matches Coq: Theorem background_execution_time_limited)
(assert (= true true)) ; background_execution_time_limited [untranslatable]

; url_scheme_validated (matches Coq: Theorem url_scheme_validated)
(assert (forall ((u URLScheme)) (=> (= (url_validated u) true) (= (url_validated u) true)))) ; url_scheme_validated

; deep_link_sanitized (matches Coq: Theorem deep_link_sanitized)
(assert (forall ((u URLScheme)) (=> (= (url_sanitized u) true) (=> (= (url_validated u) true) (and (= (url_sanitized u) true) (= (url_validated u) true)))))) ; deep_link_sanitized

; app_extension_sandboxed (matches Coq: Theorem app_extension_sandboxed)
(assert (forall ((ext AppExtension)) (=> (= (ext_sandboxed ext) true) (= (ext_sandboxed ext) true)))) ; app_extension_sandboxed

; widget_update_throttled (matches Coq: Theorem widget_update_throttled)
(assert (= true true)) ; widget_update_throttled [untranslatable]

; share_extension_data_typed (matches Coq: Theorem share_extension_data_typed)
(assert (= true true)) ; share_extension_data_typed [untranslatable]

; app_group_access_controlled (matches Coq: Theorem app_group_access_controlled)
(assert (forall ((g AppGroup)) (=> (= (group_access_controlled g) true) (= (group_access_controlled g) true)))) ; app_group_access_controlled

; scene_lifecycle_managed (matches Coq: Theorem scene_lifecycle_managed)
(assert (forall ((s AppScene)) (=> (= (scene_active s) true) (=> (= (scene_state s) Foreground) (and (= (scene_active s) true) (= (scene_state s) Foreground)))))) ; scene_lifecycle_managed

; app_activation_idempotent (matches Coq: Theorem app_activation_idempotent)
(assert (forall ((app Application)) (=> (= (app_state app) Foreground) (=> (= (app_state app) Foreground) (= (app_state app) Foreground))))) ; app_activation_idempotent

; Verify all assertions are satisfiable
(check-sat)
(exit)
